(set-info :source |printed by MathSAT|)
(declare-fun |!{b.2}| () (Array Int Int))
(declare-fun |!{b.2}.next| () (Array Int Int))
(declare-fun |!{N}| () Int)
(declare-fun |!{N}.next| () Int)
(declare-fun |!{i}| () Int)
(declare-fun |!{i}.next| () Int)
(declare-fun |!{a.1}| () (Array Int Int))
(declare-fun |!{a.1}.next| () (Array Int Int))
(declare-fun |!pc[0]| () Bool)
(declare-fun |!pc[0].next| () Bool)
(declare-fun |!pc[1]| () Bool)
(declare-fun |!pc[1].next| () Bool)
(declare-fun |!pc[2]| () Bool)
(declare-fun |!pc[2].next| () Bool)
(declare-fun |%{a.1}#1| () (Array Int Int))
(declare-fun |%{b.2}#1| () (Array Int Int))
(declare-fun nondet_int<0> () Int)
(declare-fun nondet_char<0> () Int)
(declare-fun |%{b.2}#2| () (Array Int Int))
(declare-fun arrlambda_0 () Int)
(declare-fun arrlambda_0.next () Int)
(declare-fun proph0 () Int)
(declare-fun proph0.next () Int)
(define-fun .def_10 () Bool (! |!pc[2]| :next |!pc[2].next|))
(define-fun .def_12 () Bool (! |!pc[1]| :next |!pc[1].next|))
(define-fun .def_14 () Bool (! |!pc[0]| :next |!pc[0].next|))
(define-fun .def_28 () Int (! |!{N}| :next |!{N}.next|))
(define-fun .def_31 () (Array Int Int) (! |!{b.2}| :next |!{b.2}.next|))
(define-fun .def_39 () (Array Int Int) (! |!{a.1}| :next |!{a.1}.next|))
(define-fun .def_43 () Int (! |!{i}| :next |!{i}.next|))
(define-fun .def_267 () Int (! arrlambda_0 :next |arrlambda_0.next|))
(define-fun .def_14570 () Int (! proph0 :next |proph0.next|))
(define-fun .def_15 () Bool (not .def_14))
(define-fun .def_13 () Bool (not .def_12))
(define-fun .def_16 () Bool (and .def_13 .def_15))
(define-fun .def_11 () Bool (not .def_10))
(define-fun .def_17 () Bool (! (and .def_11 .def_16) :init true))
(define-fun .def_22139 () Int (select .def_39 .def_14570))
(define-fun .def_22122 () Int (select |!{a.1}.next| .def_14570))
(define-fun .def_22151 () Bool (= .def_22122 .def_22139))
(define-fun .def_41 () Bool (= .def_39 |!{a.1}.next|))
(define-fun .def_22098 () Bool (not .def_41))
(define-fun .def_22152 () Bool (or .def_22098 .def_22151))
(define-fun .def_22131 () Int (select .def_31 .def_14570))
(define-fun .def_22073 () Int (select |!{b.2}.next| .def_14570))
(define-fun .def_22148 () Bool (= .def_22073 .def_22131))
(define-fun .def_33 () Bool (= .def_31 |!{b.2}.next|))
(define-fun .def_22092 () Bool (not .def_33))
(define-fun .def_22149 () Bool (or .def_22092 .def_22148))
(define-fun .def_59 () (Array Int Int) (store .def_31 .def_43 20))
(define-fun .def_22126 () Int (select .def_59 .def_14570))
(define-fun .def_22144 () Bool (= .def_22126 .def_22131))
(define-fun .def_14571 () Bool (= .def_43 .def_14570))
(define-fun .def_22145 () Bool (or .def_14571 .def_22144))
(define-fun .def_63 () (Array Int Int) (store .def_39 .def_43 nondet_char<0>))
(define-fun .def_22121 () Int (select .def_63 .def_14570))
(define-fun .def_22140 () Bool (= .def_22121 .def_22139))
(define-fun .def_22141 () Bool (or .def_14571 .def_22140))
(define-fun .def_22067 () Int (select |%{b.2}#2| proph0.next))
(define-fun .def_22059 () Int (select |!{b.2}.next| proph0.next))
(define-fun .def_22136 () Bool (= .def_22059 .def_22067))
(define-fun .def_65 () Bool (= |!{b.2}.next| |%{b.2}#2|))
(define-fun .def_22075 () Bool (not .def_65))
(define-fun .def_22137 () Bool (or .def_22075 .def_22136))
(define-fun .def_56 () Bool (= .def_31 |%{b.2}#2|))
(define-fun .def_22133 () Bool (not .def_56))
(define-fun .def_22072 () Int (select |%{b.2}#2| .def_14570))
(define-fun .def_22132 () Bool (= .def_22072 .def_22131))
(define-fun .def_22134 () Bool (or .def_22132 .def_22133))
(define-fun .def_22127 () Bool (= .def_22072 .def_22126))
(define-fun .def_60 () Bool (= |%{b.2}#2| .def_59))
(define-fun .def_22115 () Bool (not .def_60))
(define-fun .def_22128 () Bool (or .def_22115 .def_22127))
(define-fun .def_22123 () Bool (= .def_22121 .def_22122))
(define-fun .def_64 () Bool (= |!{a.1}.next| .def_63))
(define-fun .def_22111 () Bool (not .def_64))
(define-fun .def_22124 () Bool (or .def_22111 .def_22123))
(define-fun .def_22104 () Int (select |%{b.2}#2| .def_43))
(define-fun .def_22088 () Int (select .def_59 .def_43))
(define-fun .def_22114 () Bool (= .def_22088 .def_22104))
(define-fun .def_22116 () Bool (or .def_22114 .def_22115))
(define-fun .def_22109 () Int (select |!{a.1}.next| .def_43))
(define-fun .def_22084 () Int (select .def_63 .def_43))
(define-fun .def_22110 () Bool (= .def_22084 .def_22109))
(define-fun .def_22112 () Bool (or .def_22110 .def_22111))
(define-fun .def_22105 () Int (select |!{b.2}.next| .def_43))
(define-fun .def_22106 () Bool (= .def_22104 .def_22105))
(define-fun .def_22107 () Bool (or .def_22075 .def_22106))
(define-fun .def_22100 () Int (select .def_39 |!{i}.next|))
(define-fun .def_22099 () Int (select |!{a.1}.next| |!{i}.next|))
(define-fun .def_22101 () Bool (= .def_22099 .def_22100))
(define-fun .def_22102 () Bool (or .def_22098 .def_22101))
(define-fun .def_22094 () Int (select .def_31 |!{i}.next|))
(define-fun .def_22093 () Int (select |!{b.2}.next| |!{i}.next|))
(define-fun .def_22095 () Bool (= .def_22093 .def_22094))
(define-fun .def_22096 () Bool (or .def_22092 .def_22095))
(define-fun .def_22089 () Bool (= .def_22088 20))
(define-fun .def_22085 () Bool (= nondet_char<0> .def_22084))
(define-fun .def_269 () Bool (= .def_267 arrlambda_0.next))
(define-fun .def_132 () Bool (<= nondet_int<0> 0))
(define-fun .def_133 () Bool (not .def_132))
(define-fun .def_128 () Bool (= |!{b.2}.next| |%{b.2}#1|))
(define-fun .def_126 () Bool (= |!{N}.next| nondet_int<0>))
(define-fun .def_129 () Bool (and .def_126 .def_128))
(define-fun .def_37 () Bool (= |!{i}.next| 0))
(define-fun .def_130 () Bool (and .def_37 .def_129))
(define-fun .def_124 () Bool (= |!{a.1}.next| |%{a.1}#1|))
(define-fun .def_131 () Bool (and .def_124 .def_130))
(define-fun .def_134 () Bool (and .def_131 .def_133))
(define-fun .def_47 () Bool (not |!pc[1].next|))
(define-fun .def_48 () Bool (and |!pc[0].next| .def_47))
(define-fun .def_25 () Bool (not |!pc[2].next|))
(define-fun .def_49 () Bool (and .def_25 .def_48))
(define-fun .def_122 () Bool (and .def_17 .def_49))
(define-fun .def_135 () Bool (and .def_122 .def_134))
(define-fun .def_99 () Int (select .def_31 .def_43))
(define-fun .def_100 () Bool (= .def_99 20))
(define-fun .def_112 () Bool (not .def_100))
(define-fun .def_113 () Bool (and .def_33 .def_112))
(define-fun .def_30 () Bool (= .def_28 |!{N}.next|))
(define-fun .def_114 () Bool (and .def_30 .def_113))
(define-fun .def_94 () Bool (= |!{i}.next| .def_43))
(define-fun .def_115 () Bool (and .def_94 .def_114))
(define-fun .def_116 () Bool (and .def_41 .def_115))
(define-fun .def_101 () Int (select .def_39 .def_43))
(define-fun .def_102 () Bool (= .def_101 10))
(define-fun .def_117 () Bool (and .def_102 .def_116))
(define-fun .def_44 () Bool (<= .def_28 .def_43))
(define-fun .def_77 () Bool (not .def_44))
(define-fun .def_118 () Bool (and .def_77 .def_117))
(define-fun .def_109 () Bool (and |!pc[0].next| |!pc[1].next|))
(define-fun .def_110 () Bool (and .def_25 .def_109))
(define-fun .def_89 () Bool (and .def_12 .def_15))
(define-fun .def_90 () Bool (and .def_11 .def_89))
(define-fun .def_111 () Bool (and .def_90 .def_110))
(define-fun .def_119 () Bool (and .def_111 .def_118))
(define-fun .def_104 () Bool (not .def_102))
(define-fun .def_103 () Bool (and .def_100 .def_102))
(define-fun .def_105 () Bool (or .def_103 .def_104))
(define-fun .def_71 () Int (* (- 1) .def_43))
(define-fun .def_72 () Int (+ |!{i}.next| .def_71))
(define-fun .def_73 () Bool (= .def_72 1))
(define-fun .def_34 () Bool (and .def_30 .def_33))
(define-fun .def_84 () Bool (and .def_34 .def_73))
(define-fun .def_85 () Bool (and .def_41 .def_84))
(define-fun .def_106 () Bool (and .def_85 .def_105))
(define-fun .def_107 () Bool (and .def_77 .def_106))
(define-fun .def_21 () Bool (not |!pc[0].next|))
(define-fun .def_23 () Bool (and .def_21 |!pc[1].next|))
(define-fun .def_26 () Bool (and .def_23 .def_25))
(define-fun .def_98 () Bool (and .def_26 .def_90))
(define-fun .def_108 () Bool (and .def_98 .def_107))
(define-fun .def_120 () Bool (or .def_108 .def_119))
(define-fun .def_92 () Bool (and .def_33 .def_44))
(define-fun .def_93 () Bool (and .def_30 .def_92))
(define-fun .def_95 () Bool (and .def_93 .def_94))
(define-fun .def_96 () Bool (and .def_41 .def_95))
(define-fun .def_87 () Bool (and .def_21 .def_47))
(define-fun .def_88 () Bool (and |!pc[2].next| .def_87))
(define-fun .def_91 () Bool (and .def_88 .def_90))
(define-fun .def_97 () Bool (and .def_91 .def_96))
(define-fun .def_121 () Bool (or .def_97 .def_120))
(define-fun .def_136 () Bool (or .def_121 .def_135))
(define-fun .def_81 () Bool (and .def_12 .def_14))
(define-fun .def_82 () Bool (and .def_11 .def_81))
(define-fun .def_83 () Bool (and .def_26 .def_82))
(define-fun .def_86 () Bool (and .def_83 .def_85))
(define-fun .def_137 () Bool (or .def_86 .def_136))
(define-fun .def_66 () Bool (and .def_30 .def_65))
(define-fun .def_74 () Bool (and .def_66 .def_73))
(define-fun .def_75 () Bool (and .def_64 .def_74))
(define-fun .def_53 () Bool (= nondet_char<0> 10))
(define-fun .def_61 () Bool (and .def_53 .def_60))
(define-fun .def_54 () Bool (not .def_53))
(define-fun .def_57 () Bool (and .def_54 .def_56))
(define-fun .def_62 () Bool (or .def_57 .def_61))
(define-fun .def_76 () Bool (and .def_62 .def_75))
(define-fun .def_78 () Bool (and .def_76 .def_77))
(define-fun .def_18 () Bool (and .def_13 .def_14))
(define-fun .def_19 () Bool (and .def_11 .def_18))
(define-fun .def_50 () Bool (and .def_19 .def_49))
(define-fun .def_79 () Bool (and .def_50 .def_78))
(define-fun .def_38 () Bool (and .def_34 .def_37))
(define-fun .def_42 () Bool (and .def_38 .def_41))
(define-fun .def_45 () Bool (and .def_42 .def_44))
(define-fun .def_27 () Bool (and .def_19 .def_26))
(define-fun .def_46 () Bool (and .def_27 .def_45))
(define-fun .def_80 () Bool (or .def_46 .def_79))
(define-fun .def_138 () Bool (or .def_80 .def_137))
(define-fun .def_890 () Bool (and .def_138 .def_269))
(define-fun .def_139 () Bool (not .def_82))
(define-fun .def_891 () Bool (and .def_139 .def_890))
(define-fun .def_22086 () Bool (and .def_891 .def_22085))
(define-fun .def_22062 () (Array Int Int) (store |!{a.1}.next| |!{i}.next| nondet_char<0>))
(define-fun .def_22082 () Int (select .def_22062 |!{i}.next|))
(define-fun .def_22083 () Bool (= nondet_char<0> .def_22082))
(define-fun .def_22087 () Bool (and .def_22083 .def_22086))
(define-fun .def_22090 () Bool (and .def_22087 .def_22089))
(define-fun .def_22057 () (Array Int Int) (store |!{b.2}.next| |!{i}.next| 20))
(define-fun .def_22077 () Int (select .def_22057 |!{i}.next|))
(define-fun .def_22081 () Bool (= .def_22077 20))
(define-fun .def_22091 () Bool (and .def_22081 .def_22090))
(define-fun .def_22097 () Bool (and .def_22091 .def_22096))
(define-fun .def_22103 () Bool (and .def_22097 .def_22102))
(define-fun .def_22108 () Bool (and .def_22103 .def_22107))
(define-fun .def_22113 () Bool (and .def_22108 .def_22112))
(define-fun .def_22117 () Bool (and .def_22113 .def_22116))
(define-fun .def_22078 () Int (select |%{b.2}#2| |!{i}.next|))
(define-fun .def_22079 () Bool (= .def_22077 .def_22078))
(define-fun .def_22069 () Bool (= |%{b.2}#2| .def_22057))
(define-fun .def_22070 () Bool (not .def_22069))
(define-fun .def_22080 () Bool (or .def_22070 .def_22079))
(define-fun .def_22118 () Bool (and .def_22080 .def_22117))
(define-fun .def_14573 () Bool (= .def_14570 proph0.next))
(define-fun .def_22119 () Bool (and .def_14573 .def_22118))
(define-fun .def_22074 () Bool (= .def_22072 .def_22073))
(define-fun .def_22076 () Bool (or .def_22074 .def_22075))
(define-fun .def_22120 () Bool (and .def_22076 .def_22119))
(define-fun .def_22125 () Bool (and .def_22120 .def_22124))
(define-fun .def_22129 () Bool (and .def_22125 .def_22128))
(define-fun .def_22058 () Int (select .def_22057 proph0.next))
(define-fun .def_22068 () Bool (= .def_22058 .def_22067))
(define-fun .def_22071 () Bool (or .def_22068 .def_22070))
(define-fun .def_22130 () Bool (and .def_22071 .def_22129))
(define-fun .def_22135 () Bool (and .def_22130 .def_22134))
(define-fun .def_22138 () Bool (and .def_22135 .def_22137))
(define-fun .def_22142 () Bool (and .def_22138 .def_22141))
(define-fun .def_22064 () Int (select |!{a.1}.next| proph0.next))
(define-fun .def_22063 () Int (select .def_22062 proph0.next))
(define-fun .def_22065 () Bool (= .def_22063 .def_22064))
(define-fun .def_18233 () Bool (= |!{i}.next| proph0.next))
(define-fun .def_22066 () Bool (or .def_18233 .def_22065))
(define-fun .def_22143 () Bool (and .def_22066 .def_22142))
(define-fun .def_22146 () Bool (and .def_22143 .def_22145))
(define-fun .def_22060 () Bool (= .def_22058 .def_22059))
(define-fun .def_22061 () Bool (or .def_18233 .def_22060))
(define-fun .def_22147 () Bool (and .def_22061 .def_22146))
(define-fun .def_22150 () Bool (and .def_22147 .def_22149))
(define-fun .def_22153 () Bool (! (and .def_22150 .def_22152) :trans true))
(define-fun .def_14575 () Bool (not .def_14571))
(define-fun .def_14576 () Bool (! (or .def_139 .def_14575) :invar-property 0))
(assert true)
